
Gurobi 6.5.0 (linux64) logging started Fri Dec 11 14:14:02 2015


Gurobi 6.5.0 (linux64) logging started Fri Dec 11 14:24:21 2015


Gurobi 6.5.0 (linux64) logging started Fri Dec 11 18:50:42 2015


Gurobi 6.5.0 (linux64) logging started Mon Dec 14 12:53:12 2015

